* #variable= 38 #constraint= 3 
+1 x1 -1 x20 +2 x2 -2 x21 +4 x3 -4 x22 +8 x4 -8 x23 +16 x5 -16 x24 +32 x6 -32 x25 +64 x7 -64 x26 +128 x8 -128 x27 +256 x9 -256 x28 +512 x10 -512 x29 +1024 x11 -1024 x30 +2048 x12 -2048 x31 +4096 x13 -4096 x32 +8192 x14 -8192 x33 +16384 x15 -16384 x34 +32768 x16 -32768 x35 +65536 x17 -65536 x36 +131072 x18 -131072 x37 +262144 x19 -262144 x38 = 0 ;
-1 x1 -1 x20 >= -1; 
+1 x1 +1 x20 >= 1; 
